0
1
2
4
5
6
8
9
10
11
1,18
12,26
100,103
3,16
13
13,58
14
15
16
17
16,48
19
20
21,56
24
25
24,27
27
28
26,30,58
29
32
33
34
35
36
37
38
38,102
39
40
41
42
43,63
44
45
46
10,47,60
48
49
50
52
2,51
17,51
34,51
49,51
51,52
51,64
53
54
55
56
55,59
59
60
65,66,67
61
62
7,31,80,81
63
64
68
57,69
70
71
2,72
52,72
20,35,70
35,49,70
35,70,78
74
75
76
77
78
79
73,82,83,84,85,86,87,88,89,90,91,92,93,94
99
101,104
5,100
9,100
11,100
15,100
25,100
33,100
36,100
42,100
45,100
52,100
56,100
60,100
62,100
71,100
75,100
22,56,110
105,106
30,102,108
107,109
111,112
23,64,110
113
95,96
97,98
